# Solution for model Objective
# Objective value = 13
M 6
W5 0
W6 0
W8 0
W10 0
W11 0
W15 0
W16 0
W17 0
W18 0
W19 0
W20 0
W21 0
W24 0
W27 0
W28 0
W29 1
W30 1
W31 1
W32 0
W35 0
W37 0
W39 0
W40 0
W41 0
W42 0
W43 1
W44 0
W45 0
W46 0
W50 0
W51 1
W52 0
W53 0
W56 0
W57 0
W58 0
W61 0
W62 0
W64 0
W68 0
W69 0
W70 0
W71 0
W72 0
W73 1
W75 1
W76 0
W77 0
W0 6
W1 1
W2 6
W3 6
W4 6
W7 0
W9 6
W12 0
W13 5
W14 4
W22 0
W23 6
W25 4
W26 2
W33 4
W34 2
W36 6
W38 2
W47 1
W48 0
W49 4
W54 6
W55 2
W59 6
W60 3
W63 0
W65 5
W66 0
W67 0
W74 1
d0_1 1
d0_2 0
d0_3 0
d0_4 0
d0_5 0
d0_6 0
d0_7 0
d0_8 0
d0_9 0
d0_0 0
d1_1 0
d1_2 0
d1_3 0
d1_4 1
d1_5 0
d1_6 0
d1_7 0
d1_8 0
d1_9 0
d1_0 0
d2_1 0
d2_2 0
d2_3 0
d2_4 0
d2_5 0
d2_6 0
d2_7 1
d2_8 0
d2_9 0
d2_0 0
d3_1 1
d3_2 0
d3_3 0
d3_4 0
d3_5 0
d3_6 0
d3_7 0
d3_8 0
d3_9 0
d3_0 0
d4_1 0
d4_2 0
d4_3 0
d4_4 0
d4_5 0
d4_6 1
d4_7 0
d4_8 0
d4_9 0
d4_0 0
d5_1 0
d5_2 0
d5_3 0
d5_4 0
d5_5 1
d5_6 0
d5_7 0
d5_8 0
d5_9 0
d5_0 0
d6_1 0
d6_2 1
d6_3 0
d6_4 0
d6_5 0
d6_6 0
d6_7 0
d6_8 0
d6_9 0
d6_0 0
d7_1 0
d7_2 0
d7_3 1
d7_4 0
d7_5 0
d7_6 0
d7_7 0
d7_8 0
d7_9 0
d7_0 0
d8_1 0
d8_2 0
d8_3 1
d8_4 0
d8_5 0
d8_6 0
d8_7 0
d8_8 0
d8_9 0
d8_0 0
